50
150
100
99
99
98
97
96
93
91
89
86
85
82
78
76
75
74
73
71
68
68
66
65
65
64
63
63
63
63
63
62
60
59
56
55
55
53
51
50
48
45
43
43
42
42
39
39
35
31
27
26
